proyfinal/src/viki/013/andrea/andrea-localstore/experimentInOfficeAgust.take6/worker_2/962f8708-c49d-4544-b548-bca651ff04b9.als.cnf.out
Reading from standard input... Use '--help' for help.
============================[ Problem Statistics ]=============================
|                                                                             |
|  Number of variables:         87638                                         |
|  Number of clauses:          161767                                         |
|  Parse time:                   0.03 s                                       |
|                                                                             |
============================[ Search Statistics ]==============================
| Conflicts |          ORIGINAL         |          LEARNT          | Progress |
|           |    Vars  Clauses Literals |    Limit  Clauses Lit/Cl |          |
===============================================================================
|       100 |   63375   109065   271788 |    39990      100     15 | 27.685 % |
|       250 |   63356   109065   271788 |    43989      248     41 | 27.707 % |
|       475 |   63356   108947   271527 |    48388      472     35 | 27.707 % |
|       812 |   63356   108947   271527 |    53227      809     43 | 27.707 % |
|      1318 |   63337   108871   271348 |    58550     1313     59 | 27.729 % |
|      2077 |   63337   108871   271348 |    64405     2072     61 | 27.729 % |
|      3216 |   63321   108805   271195 |    70845     3210     70 | 27.747 % |
|      4924 |   63321   108805   271195 |    77930     4918     73 | 27.747 % |
|      7486 |   63303   108731   271024 |    85723     7478     77 | 27.768 % |
===============================================================================
restarts              : 45
conflicts             : 10195          (8504 /sec)
decisions             : 42051          (0.00 % random) (35074 /sec)
propagations          : 13311349       (11102894 /sec)
conflict literals     : 846661         (44.57 % deleted)
Memory used           : 29.17 MB
CPU time              : 1.19891 s

INDETERMINATE
